ssat_solver_solve2
#level: 2
Abc_NtkNodeNum(s->pNtk): 234  , BDD limit: 10240
Build BDD success
level 1: 10 element
Exist
level 0: 10 element
Random
c ssat solving in ABC
#var: 20
s SATISFIABLE
  > Upper bound = 5.673828e-01
  > Lower bound = 5.673828e-01
FINISHED CPU 0.14 MEM 59952 MAXMEM 59952 STALE 0 MAXMEM_RSS 0
<time name="ALL">200</time>
real 0.29
user 0.26
sys 0.14
